
--- Job InFeasible_LP.gms Start 10/22/21 14:13:21 36.2.0 r433180e WEX-WEI x86 64bit/MS Windows
--- Applying:
    C:\GAMS\36\gmsprmNT.txt
--- GAMS Parameters defined
    Input "C:\Users\USER\OneDrive\Documents\GAMS\Studio\workspace\CL643 Assignment 4\Multi Objective\InFeasible_LP.gms"
    PageSize 0
    ScrDir "C:\Users\USER\OneDrive\Documents\GAMS\Studio\workspace\CL643 Assignment 4\Multi Objective\225a\"
    SysDir C:\GAMS\36\
    LogOption 3
    ErrMsg 1
    ErrorLog 99
    IDE 1
    LstTitleLeftAligned 1
Licensee: GAMS Demo license for Nikitha Reddy Metta      G210913|0002CO-GEN
          Indian Institute of Technology Guwahati, India           DL048129
          C:\GAMS\36\gamslice.txt
          m.nikitha@iitg.ac.in, Nikitha Reddy Metta                        
          Demo license for demonstration and instructional purposes only
Processor information: 1 socket(s), 4 core(s), and 8 thread(s) available
GAMS 36.2.0   Copyright (C) 1987-2021 GAMS Development. All rights reserved
--- Starting compilation
--- InFeasible_LP.gms(51) 3 Mb
--- Starting execution: elapsed 0:00:00.007
--- Generating LP model InFeasible_LP
--- InFeasible_LP.gms(33) 4 Mb
---   7 rows  5 columns  17 non-zeroes
--- Executing CPLEX (Solvelink=2): elapsed 0:00:00.012

IBM ILOG CPLEX   36.2.0 r433180e Released Sep 03, 2021 WEI x86 64bit/MS Window

--- *** This solver runs with a demo license. No commercial use.
--- GMO setup time: 0.00s
--- GMO memory 0.50 Mb (peak 0.50 Mb)
--- Dictionary memory 0.00 Mb
--- Cplex 20.1.0.1 link memory 0.00 Mb (peak 0.00 Mb)
--- Starting Cplex

Version identifier: 20.1.0.1 | 2021-04-07 | 3a818710c
CPXPARAM_Advance                                 0
CPXPARAM_Simplex_Display                         2
CPXPARAM_Threads                                 1
CPXPARAM_MIP_Display                             4
CPXPARAM_MIP_Tolerances_AbsMIPGap                0
Infeasible column 'x2'.
Presolve time = 0.00 sec. (0.00 ticks)

--- LP status (3): infeasible.
--- Cplex Time: 0.00sec (det. 0.00 ticks)

--- Rerunning with presolve turned off and solving with LPMETHOD=1.

Version identifier: 20.1.0.1 | 2021-04-07 | 3a818710c
CPXPARAM_Advance                                 2
CPXPARAM_Simplex_Display                         2
CPXPARAM_Preprocessing_Presolve                  0
CPXPARAM_LPMethod                                1
CPXPARAM_Threads                                 1
CPXPARAM_MIP_Display                             4
CPXPARAM_MIP_Tolerances_AbsMIPGap                0

Iteration           Objective            In Variable           Out Variable
     1  I            1.999998                     x1               c4 artif

--- LP status (3): infeasible.
--- Cplex Time: 0.02sec (det. 0.00 ticks)


Model has been proven infeasible

--- Reading solution for model InFeasible_LP
--- Executing after solve: elapsed 0:00:00.119
--- InFeasible_LP.gms(35) 4 Mb
--- Generating LP model InFeasible_LP
--- InFeasible_LP.gms(37) 4 Mb
---   7 rows  5 columns  17 non-zeroes
--- Executing CPLEX (Solvelink=2): elapsed 0:00:00.123

IBM ILOG CPLEX   36.2.0 r433180e Released Sep 03, 2021 WEI x86 64bit/MS Window

--- *** This solver runs with a demo license. No commercial use.
--- GMO setup time: 0.00s
--- GMO memory 0.50 Mb (peak 0.50 Mb)
--- Dictionary memory 0.00 Mb
--- Cplex 20.1.0.1 link memory 0.00 Mb (peak 0.00 Mb)
--- Starting Cplex

Version identifier: 20.1.0.1 | 2021-04-07 | 3a818710c
CPXPARAM_Advance                                 2
CPXPARAM_Simplex_Display                         2
CPXPARAM_Threads                                 1
CPXPARAM_MIP_Display                             4
CPXPARAM_MIP_Tolerances_AbsMIPGap                0
Infeasible column 'x2'.
Presolve time = 0.00 sec. (0.00 ticks)

--- LP status (3): infeasible.
--- Cplex Time: 0.00sec (det. 0.01 ticks)

--- Rerunning with presolve turned off and solving with LPMETHOD=1.

Version identifier: 20.1.0.1 | 2021-04-07 | 3a818710c
CPXPARAM_Advance                                 2
CPXPARAM_Simplex_Display                         2
CPXPARAM_Preprocessing_Presolve                  0
CPXPARAM_LPMethod                                1
CPXPARAM_Threads                                 1
CPXPARAM_MIP_Display                             4
CPXPARAM_MIP_Tolerances_AbsMIPGap                0

--- LP status (3): infeasible.
--- Cplex Time: 0.00sec (det. 0.00 ticks)


Model has been proven infeasible

--- Reading solution for model InFeasible_LP
--- Executing after solve: elapsed 0:00:00.170
--- InFeasible_LP.gms(42) 4 Mb
--- Generating LP model InFeasible_LP
--- InFeasible_LP.gms(45) 4 Mb
--- LOOPS counter = count1
---   7 rows  5 columns  17 non-zeroes
--- Executing CPLEX (Solvelink=2): elapsed 0:00:00.173

IBM ILOG CPLEX   36.2.0 r433180e Released Sep 03, 2021 WEI x86 64bit/MS Window

--- *** This solver runs with a demo license. No commercial use.
--- GMO setup time: 0.00s
--- GMO memory 0.50 Mb (peak 0.50 Mb)
--- Dictionary memory 0.00 Mb
--- Cplex 20.1.0.1 link memory 0.00 Mb (peak 0.00 Mb)
--- Starting Cplex

Version identifier: 20.1.0.1 | 2021-04-07 | 3a818710c
CPXPARAM_Advance                                 2
CPXPARAM_Simplex_Display                         2
CPXPARAM_Threads                                 1
CPXPARAM_MIP_Display                             4
CPXPARAM_MIP_Tolerances_AbsMIPGap                0
Infeasibility row 'c1':  0 >= 2.
Presolve time = 0.00 sec. (0.00 ticks)

--- LP status (3): infeasible.
--- Cplex Time: 0.00sec (det. 0.01 ticks)

--- Rerunning with presolve turned off and solving with LPMETHOD=1.

Version identifier: 20.1.0.1 | 2021-04-07 | 3a818710c
CPXPARAM_Advance                                 2
CPXPARAM_Simplex_Display                         2
CPXPARAM_Preprocessing_Presolve                  0
CPXPARAM_LPMethod                                1
CPXPARAM_Threads                                 1
CPXPARAM_MIP_Display                             4
CPXPARAM_MIP_Tolerances_AbsMIPGap                0

--- LP status (3): infeasible.
--- Cplex Time: 0.00sec (det. 0.00 ticks)


Model has been proven infeasible

--- Reading solution for model InFeasible_LP
--- Executing after solve: elapsed 0:00:00.203
--- InFeasible_LP.gms(42) 4 Mb
--- Generating LP model InFeasible_LP
--- InFeasible_LP.gms(45) 4 Mb
--- LOOPS counter = count2
---   7 rows  5 columns  17 non-zeroes
--- Executing CPLEX (Solvelink=2): elapsed 0:00:00.205

IBM ILOG CPLEX   36.2.0 r433180e Released Sep 03, 2021 WEI x86 64bit/MS Window

--- *** This solver runs with a demo license. No commercial use.
--- GMO setup time: 0.00s
--- GMO memory 0.50 Mb (peak 0.50 Mb)
--- Dictionary memory 0.00 Mb
--- Cplex 20.1.0.1 link memory 0.00 Mb (peak 0.00 Mb)
--- Starting Cplex

Version identifier: 20.1.0.1 | 2021-04-07 | 3a818710c
CPXPARAM_Advance                                 2
CPXPARAM_Simplex_Display                         2
CPXPARAM_Threads                                 1
CPXPARAM_MIP_Display                             4
CPXPARAM_MIP_Tolerances_AbsMIPGap                0
Infeasibility row 'c1':  0 >= 2.
Presolve time = 0.00 sec. (0.00 ticks)

--- LP status (3): infeasible.
--- Cplex Time: 0.00sec (det. 0.01 ticks)

--- Rerunning with presolve turned off and solving with LPMETHOD=1.

Version identifier: 20.1.0.1 | 2021-04-07 | 3a818710c
CPXPARAM_Advance                                 2
CPXPARAM_Simplex_Display                         2
CPXPARAM_Preprocessing_Presolve                  0
CPXPARAM_LPMethod                                1
CPXPARAM_Threads                                 1
CPXPARAM_MIP_Display                             4
CPXPARAM_MIP_Tolerances_AbsMIPGap                0

--- LP status (3): infeasible.
--- Cplex Time: 0.00sec (det. 0.00 ticks)


Model has been proven infeasible

--- Reading solution for model InFeasible_LP
--- Executing after solve: elapsed 0:00:00.242
--- InFeasible_LP.gms(51) 4 Mb
*** Status: Normal completion
--- Job InFeasible_LP.gms Stop 10/22/21 14:13:21 elapsed 0:00:00.243
